c turning on binary mode checking
c parsing input formula with 202048 variables and 780980 clauses
c finished parsing, read 1818218 bytes from proof file
c detected empty clause; start verification via backward checking
c 1646 of 780980 clauses in core                            
c 568 of 73247 lemmas in core using 9932 resolution steps
c 0 RAT lemmas in core; 40 redundant literals in core lemmas
s VERIFIED
c verification time: 0.894 seconds
